1	50
46 1	32 1	34 1	49 2	28 2	16 2	25 1	43 1	40 1	3 1	0 2	7 6	35 4	19 2	10 3	31 1	44 2	27 3	26 1	33 1	39 1	14 2	13 1	15 4	36 1	23 1	1 1	5 1	47 7	17 5	8 2	30 2	29 1	18 1	9 1	22 1	42 3	6 7	38 4	24 1	37 1	48 4	20 1	4 2	45 1	11 1	41 5	21 1	2 1	12 2
